(set-info :smt-lib-version 2.6)
(set-logic QF_S)
(set-info :source |
Generated by: Murphy Berzish, Mitja Kulczynski, Federico Mora, Florin Manea, Joel Day, Dirk Nowotka, Vijay Ganesh, Zhengyang Lu
Generated on: 2020-10-01
Description: Translated from a collection of real-world regex queries, AutomataArk, collected by Loris D’Antoni and Fang Wang: https://github.com/lorisdanto/automatark
Application: Evaluate solvers on real-world regex queries
Target solver: Z3str3RE, CVC4, OSTRICH, Z3seq, Z3str3, Z3-Trau
Publications: Berzish, M., Kulczynski, M., Mora, F., Manea, F., Day, J. D., Nowotka, D., & Ganesh, V. (2021, July). An SMT solver for regular expressions and linear arithmetic over string length. In CAV 2021.
|)
(set-info :license "https://creativecommons.org/licenses/by/4.0/")
(set-info :category "industrial")
(set-info :status unsat)

(declare-const X String)
(assert (not (str.in_re X (re.++ (str.to_re "/filename=") (re.opt (re.union (str.to_re "\u{22}") (str.to_re "'"))) (re.* (re.comp (str.to_re "\u{a}"))) (str.to_re ".pif") (re.union (str.to_re "\u{22}") (str.to_re "'") (str.to_re " ") (str.to_re "\u{9}") (str.to_re "\u{a}") (str.to_re "\u{c}") (str.to_re "\u{d}")) (str.to_re "/si\u{a}")))))
(assert (str.in_re X (re.++ (re.opt (str.to_re "FR")) (re.opt (re.union (str.to_re " ") (str.to_re "\u{9}") (str.to_re "\u{a}") (str.to_re "\u{c}") (str.to_re "\u{d}"))) (re.union (re.range "A" "Z") (re.range "0" "9") (str.to_re "-") (str.to_re "[") (str.to_re "I") (str.to_re "O")) ((_ re.loop 2 2) (str.to_re "]")) ((_ re.loop 9 9) (re.range "0" "9")) (str.to_re "\u{a}"))))
(assert (str.in_re X (re.++ (re.union (re.range "1" "9") (re.++ (str.to_re "0") (re.range "1" "9")) (re.++ (re.union (str.to_re "1") (str.to_re "2")) (re.range "0" "9")) (re.++ (str.to_re "3") (re.union (str.to_re "0") (str.to_re "1")))) (re.union (str.to_re "-") (str.to_re "/")) (re.union (re.++ (str.to_re "1") (re.range "0" "2")) (re.range "1" "9") (re.++ (str.to_re "0") (re.range "1" "9"))) (re.union (str.to_re "-") (str.to_re "/")) (re.union (re.++ (re.range "0" "9") (re.range "0" "9")) (re.++ (re.range "0" "9") (re.range "0" "9") (re.range "0" "9") (re.range "0" "9"))) (str.to_re "\u{a}"))))
(assert (str.in_re X (re.++ (str.to_re "/.mka") (re.union (str.to_re "?") (str.to_re "\u{5c}") (str.to_re "/")) (str.to_re "/smiU\u{a}"))))
(assert (str.in_re X (re.++ (str.to_re "09") (re.union (str.to_re "73") (str.to_re "74") (str.to_re "05") (str.to_re "06") (str.to_re "15") (str.to_re "16") (str.to_re "17") (str.to_re "26") (str.to_re "27") (str.to_re "35") (str.to_re "36") (str.to_re "37") (str.to_re "79") (str.to_re "38") (str.to_re "07") (str.to_re "08") (str.to_re "09") (str.to_re "10") (str.to_re "12") (str.to_re "18") (str.to_re "19") (str.to_re "20") (str.to_re "21") (str.to_re "28") (str.to_re "29") (str.to_re "30") (str.to_re "38") (str.to_re "39") (str.to_re "89") (str.to_re "99") (str.to_re "22") (str.to_re "23") (str.to_re "32") (str.to_re "33")) ((_ re.loop 3 3) (re.range "0" "9")) (re.opt (re.union (str.to_re " ") (str.to_re "\u{9}") (str.to_re "\u{a}") (str.to_re "\u{c}") (str.to_re "\u{d}"))) ((_ re.loop 4 4) (re.range "0" "9")) (str.to_re "\u{a}"))))
(check-sat)

(exit)
